; benchmark generated from python API
(set-info :status unknown)
(declare-fun cell_1_6 () Int)
(declare-fun cell_1_8 () Int)
(declare-fun cell_2_5 () Int)
(declare-fun cell_2_7 () Int)
(declare-fun cell_3_2 () Int)
(declare-fun cell_3_3 () Int)
(declare-fun cell_4_4 () Int)
(declare-fun cell_5_8 () Int)
(declare-fun cell_6_1 () Int)
(declare-fun cell_7_9 () Int)
(declare-fun cell_8_2 () Int)
(declare-fun cell_9_5 () Int)
(declare-fun cell_1_1 () Int)
(declare-fun cell_2_1 () Int)
(declare-fun cell_3_1 () Int)
(declare-fun cell_4_1 () Int)
(declare-fun cell_5_1 () Int)
(declare-fun cell_7_1 () Int)
(declare-fun cell_8_1 () Int)
(declare-fun cell_9_1 () Int)
(declare-fun cell_1_2 () Int)
(declare-fun cell_2_2 () Int)
(declare-fun cell_4_2 () Int)
(declare-fun cell_5_2 () Int)
(declare-fun cell_6_2 () Int)
(declare-fun cell_7_2 () Int)
(declare-fun cell_9_2 () Int)
(declare-fun cell_1_3 () Int)
(declare-fun cell_2_3 () Int)
(declare-fun cell_4_3 () Int)
(declare-fun cell_5_3 () Int)
(declare-fun cell_6_3 () Int)
(declare-fun cell_7_3 () Int)
(declare-fun cell_8_3 () Int)
(declare-fun cell_9_3 () Int)
(declare-fun cell_1_4 () Int)
(declare-fun cell_2_4 () Int)
(declare-fun cell_3_4 () Int)
(declare-fun cell_5_4 () Int)
(declare-fun cell_6_4 () Int)
(declare-fun cell_7_4 () Int)
(declare-fun cell_8_4 () Int)
(declare-fun cell_9_4 () Int)
(declare-fun cell_1_5 () Int)
(declare-fun cell_3_5 () Int)
(declare-fun cell_4_5 () Int)
(declare-fun cell_5_5 () Int)
(declare-fun cell_6_5 () Int)
(declare-fun cell_7_5 () Int)
(declare-fun cell_8_5 () Int)
(declare-fun cell_2_6 () Int)
(declare-fun cell_3_6 () Int)
(declare-fun cell_4_6 () Int)
(declare-fun cell_5_6 () Int)
(declare-fun cell_6_6 () Int)
(declare-fun cell_7_6 () Int)
(declare-fun cell_8_6 () Int)
(declare-fun cell_9_6 () Int)
(declare-fun cell_1_7 () Int)
(declare-fun cell_3_7 () Int)
(declare-fun cell_4_7 () Int)
(declare-fun cell_5_7 () Int)
(declare-fun cell_6_7 () Int)
(declare-fun cell_7_7 () Int)
(declare-fun cell_8_7 () Int)
(declare-fun cell_9_7 () Int)
(declare-fun cell_2_8 () Int)
(declare-fun cell_3_8 () Int)
(declare-fun cell_4_8 () Int)
(declare-fun cell_6_8 () Int)
(declare-fun cell_7_8 () Int)
(declare-fun cell_8_8 () Int)
(declare-fun cell_9_8 () Int)
(declare-fun cell_1_9 () Int)
(declare-fun cell_2_9 () Int)
(declare-fun cell_3_9 () Int)
(declare-fun cell_4_9 () Int)
(declare-fun cell_5_9 () Int)
(declare-fun cell_6_9 () Int)
(declare-fun cell_8_9 () Int)
(declare-fun cell_9_9 () Int)
(assert
 (= cell_1_6 1))
(assert
 (= cell_1_8 2))
(assert
 (= cell_2_5 2))
(assert
 (= cell_2_7 1))
(assert
 (= cell_3_2 2))
(assert
 (= cell_3_3 1))
(assert
 (= cell_4_4 1))
(assert
 (= cell_5_8 1))
(assert
 (= cell_6_1 1))
(assert
 (= cell_7_9 1))
(assert
 (= cell_8_2 1))
(assert
 (= cell_9_5 1))
(assert
 (let (($x4530 (= cell_1_1 9)))
 (let (($x5234 (= cell_1_1 8)))
 (let (($x797 (= cell_1_1 7)))
 (let (($x3955 (= cell_1_1 6)))
 (let (($x1472 (= cell_1_1 5)))
 (let (($x6330 (= cell_1_1 4)))
 (let (($x2343 (= cell_1_1 3)))
 (let (($x4778 (= cell_1_1 2)))
 (let (($x1100 (= cell_1_1 1)))
 (or $x1100 $x4778 $x2343 $x6330 $x1472 $x3955 $x797 $x5234 $x4530)))))))))))
(assert
 (let (($x6377 (= cell_2_1 9)))
 (let (($x5870 (= cell_2_1 8)))
 (let (($x2299 (= cell_2_1 7)))
 (let (($x6319 (= cell_2_1 6)))
 (let (($x3887 (= cell_2_1 5)))
 (let (($x267 (= cell_2_1 4)))
 (let (($x5900 (= cell_2_1 3)))
 (let (($x5459 (= cell_2_1 2)))
 (let (($x4365 (= cell_2_1 1)))
 (or $x4365 $x5459 $x5900 $x267 $x3887 $x6319 $x2299 $x5870 $x6377)))))))))))
(assert
 (let (($x896 (= cell_3_1 9)))
 (let (($x4737 (= cell_3_1 8)))
 (let (($x5007 (= cell_3_1 7)))
 (let (($x119 (= cell_3_1 6)))
 (let (($x1073 (= cell_3_1 5)))
 (let (($x1329 (= cell_3_1 4)))
 (let (($x750 (= cell_3_1 3)))
 (let (($x575 (= cell_3_1 2)))
 (let (($x4057 (= cell_3_1 1)))
 (or $x4057 $x575 $x750 $x1329 $x1073 $x119 $x5007 $x4737 $x896)))))))))))
(assert
 (let (($x1832 (= cell_4_1 9)))
 (let (($x5959 (= cell_4_1 8)))
 (let (($x3907 (= cell_4_1 7)))
 (let (($x6218 (= cell_4_1 6)))
 (let (($x5926 (= cell_4_1 5)))
 (let (($x4085 (= cell_4_1 4)))
 (let (($x4457 (= cell_4_1 3)))
 (let (($x1005 (= cell_4_1 2)))
 (let (($x2763 (= cell_4_1 1)))
 (or $x2763 $x1005 $x4457 $x4085 $x5926 $x6218 $x3907 $x5959 $x1832)))))))))))
(assert
 (let (($x1670 (= cell_5_1 9)))
 (let (($x5897 (= cell_5_1 8)))
 (let (($x516 (= cell_5_1 7)))
 (let (($x4070 (= cell_5_1 6)))
 (let (($x660 (= cell_5_1 5)))
 (let (($x4302 (= cell_5_1 4)))
 (let (($x997 (= cell_5_1 3)))
 (let (($x4959 (= cell_5_1 2)))
 (let (($x4539 (= cell_5_1 1)))
 (or $x4539 $x4959 $x997 $x4302 $x660 $x4070 $x516 $x5897 $x1670)))))))))))
(assert
 (let (($x5430 (= cell_6_1 1)))
 (or $x5430 (= cell_6_1 2) (= cell_6_1 3) (= cell_6_1 4) (= cell_6_1 5) (= cell_6_1 6) (= cell_6_1 7) (= cell_6_1 8) (= cell_6_1 9))))
(assert
 (let (($x6443 (= cell_7_1 9)))
 (let (($x4473 (= cell_7_1 8)))
 (let (($x3849 (= cell_7_1 7)))
 (let (($x954 (= cell_7_1 6)))
 (let (($x3546 (= cell_7_1 5)))
 (let (($x4107 (= cell_7_1 4)))
 (let (($x2987 (= cell_7_1 3)))
 (let (($x3552 (= cell_7_1 2)))
 (let (($x6086 (= cell_7_1 1)))
 (or $x6086 $x3552 $x2987 $x4107 $x3546 $x954 $x3849 $x4473 $x6443)))))))))))
(assert
 (let (($x4183 (= cell_8_1 9)))
 (let (($x1896 (= cell_8_1 8)))
 (let (($x4752 (= cell_8_1 7)))
 (let (($x2001 (= cell_8_1 6)))
 (let (($x698 (= cell_8_1 5)))
 (let (($x3718 (= cell_8_1 4)))
 (let (($x5299 (= cell_8_1 3)))
 (let (($x962 (= cell_8_1 2)))
 (let (($x2482 (= cell_8_1 1)))
 (or $x2482 $x962 $x5299 $x3718 $x698 $x2001 $x4752 $x1896 $x4183)))))))))))
(assert
 (let (($x5263 (= cell_9_1 9)))
 (let (($x3890 (= cell_9_1 8)))
 (let (($x4022 (= cell_9_1 7)))
 (let (($x6295 (= cell_9_1 6)))
 (let (($x6584 (= cell_9_1 5)))
 (let (($x3066 (= cell_9_1 4)))
 (let (($x5990 (= cell_9_1 3)))
 (let (($x5196 (= cell_9_1 2)))
 (let (($x6003 (= cell_9_1 1)))
 (or $x6003 $x5196 $x5990 $x3066 $x6584 $x6295 $x4022 $x3890 $x5263)))))))))))
(assert
 (let (($x4421 (= cell_1_2 9)))
 (let (($x848 (= cell_1_2 8)))
 (let (($x4247 (= cell_1_2 7)))
 (let (($x3727 (= cell_1_2 6)))
 (let (($x6176 (= cell_1_2 5)))
 (let (($x3665 (= cell_1_2 4)))
 (let (($x3662 (= cell_1_2 3)))
 (let (($x577 (= cell_1_2 2)))
 (let (($x2291 (= cell_1_2 1)))
 (or $x2291 $x577 $x3662 $x3665 $x6176 $x3727 $x4247 $x848 $x4421)))))))))))
(assert
 (let (($x298 (= cell_2_2 9)))
 (let (($x799 (= cell_2_2 8)))
 (let (($x4638 (= cell_2_2 7)))
 (let (($x185 (= cell_2_2 6)))
 (let (($x4565 (= cell_2_2 5)))
 (let (($x3070 (= cell_2_2 4)))
 (let (($x5668 (= cell_2_2 3)))
 (let (($x5486 (= cell_2_2 2)))
 (let (($x3091 (= cell_2_2 1)))
 (or $x3091 $x5486 $x5668 $x3070 $x4565 $x185 $x4638 $x799 $x298)))))))))))
(assert
 (let (($x5550 (= cell_3_2 2)))
 (or (= cell_3_2 1) $x5550 (= cell_3_2 3) (= cell_3_2 4) (= cell_3_2 5) (= cell_3_2 6) (= cell_3_2 7) (= cell_3_2 8) (= cell_3_2 9))))
(assert
 (let (($x7721 (= cell_4_2 9)))
 (let (($x3755 (= cell_4_2 8)))
 (let (($x1107 (= cell_4_2 7)))
 (let (($x4541 (= cell_4_2 6)))
 (let (($x5973 (= cell_4_2 5)))
 (let (($x4270 (= cell_4_2 4)))
 (let (($x4374 (= cell_4_2 3)))
 (let (($x5172 (= cell_4_2 2)))
 (let (($x3399 (= cell_4_2 1)))
 (or $x3399 $x5172 $x4374 $x4270 $x5973 $x4541 $x1107 $x3755 $x7721)))))))))))
(assert
 (let (($x1378 (= cell_5_2 9)))
 (let (($x4434 (= cell_5_2 8)))
 (let (($x6561 (= cell_5_2 7)))
 (let (($x4199 (= cell_5_2 6)))
 (let (($x4122 (= cell_5_2 5)))
 (let (($x4261 (= cell_5_2 4)))
 (let (($x6300 (= cell_5_2 3)))
 (let (($x987 (= cell_5_2 2)))
 (let (($x4218 (= cell_5_2 1)))
 (or $x4218 $x987 $x6300 $x4261 $x4122 $x4199 $x6561 $x4434 $x1378)))))))))))
(assert
 (let (($x6548 (= cell_6_2 9)))
 (let (($x6531 (= cell_6_2 8)))
 (let (($x747 (= cell_6_2 7)))
 (let (($x5209 (= cell_6_2 6)))
 (let (($x3942 (= cell_6_2 5)))
 (let (($x761 (= cell_6_2 4)))
 (let (($x4993 (= cell_6_2 3)))
 (let (($x2704 (= cell_6_2 2)))
 (let (($x3147 (= cell_6_2 1)))
 (or $x3147 $x2704 $x4993 $x761 $x3942 $x5209 $x747 $x6531 $x6548)))))))))))
(assert
 (let (($x204 (= cell_7_2 9)))
 (let (($x3889 (= cell_7_2 8)))
 (let (($x7125 (= cell_7_2 7)))
 (let (($x5997 (= cell_7_2 6)))
 (let (($x6441 (= cell_7_2 5)))
 (let (($x3628 (= cell_7_2 4)))
 (let (($x3716 (= cell_7_2 3)))
 (let (($x1529 (= cell_7_2 2)))
 (let (($x928 (= cell_7_2 1)))
 (or $x928 $x1529 $x3716 $x3628 $x6441 $x5997 $x7125 $x3889 $x204)))))))))))
(assert
 (let (($x3265 (= cell_8_2 1)))
 (or $x3265 (= cell_8_2 2) (= cell_8_2 3) (= cell_8_2 4) (= cell_8_2 5) (= cell_8_2 6) (= cell_8_2 7) (= cell_8_2 8) (= cell_8_2 9))))
(assert
 (let (($x1039 (= cell_9_2 9)))
 (let (($x1226 (= cell_9_2 8)))
 (let (($x5428 (= cell_9_2 7)))
 (let (($x4268 (= cell_9_2 6)))
 (let (($x3232 (= cell_9_2 5)))
 (let (($x4582 (= cell_9_2 4)))
 (let (($x4826 (= cell_9_2 3)))
 (let (($x448 (= cell_9_2 2)))
 (let (($x5641 (= cell_9_2 1)))
 (or $x5641 $x448 $x4826 $x4582 $x3232 $x4268 $x5428 $x1226 $x1039)))))))))))
(assert
 (let (($x5796 (= cell_1_3 9)))
 (let (($x111 (= cell_1_3 8)))
 (let (($x4161 (= cell_1_3 7)))
 (let (($x1759 (= cell_1_3 6)))
 (let (($x4477 (= cell_1_3 5)))
 (let (($x1902 (= cell_1_3 4)))
 (let (($x1349 (= cell_1_3 3)))
 (let (($x5769 (= cell_1_3 2)))
 (let (($x496 (= cell_1_3 1)))
 (or $x496 $x5769 $x1349 $x1902 $x4477 $x1759 $x4161 $x111 $x5796)))))))))))
(assert
 (let (($x2808 (= cell_2_3 9)))
 (let (($x2524 (= cell_2_3 8)))
 (let (($x6128 (= cell_2_3 7)))
 (let (($x1231 (= cell_2_3 6)))
 (let (($x517 (= cell_2_3 5)))
 (let (($x4528 (= cell_2_3 4)))
 (let (($x4484 (= cell_2_3 3)))
 (let (($x3780 (= cell_2_3 2)))
 (let (($x5397 (= cell_2_3 1)))
 (or $x5397 $x3780 $x4484 $x4528 $x517 $x1231 $x6128 $x2524 $x2808)))))))))))
(assert
 (let (($x5607 (= cell_3_3 1)))
 (or $x5607 (= cell_3_3 2) (= cell_3_3 3) (= cell_3_3 4) (= cell_3_3 5) (= cell_3_3 6) (= cell_3_3 7) (= cell_3_3 8) (= cell_3_3 9))))
(assert
 (let (($x4833 (= cell_4_3 9)))
 (let (($x360 (= cell_4_3 8)))
 (let (($x1792 (= cell_4_3 7)))
 (let (($x1569 (= cell_4_3 6)))
 (let (($x4265 (= cell_4_3 5)))
 (let (($x1448 (= cell_4_3 4)))
 (let (($x374 (= cell_4_3 3)))
 (let (($x4332 (= cell_4_3 2)))
 (let (($x6448 (= cell_4_3 1)))
 (or $x6448 $x4332 $x374 $x1448 $x4265 $x1569 $x1792 $x360 $x4833)))))))))))
(assert
 (let (($x1974 (= cell_5_3 9)))
 (let (($x2940 (= cell_5_3 8)))
 (let (($x4067 (= cell_5_3 7)))
 (let (($x3477 (= cell_5_3 6)))
 (let (($x2278 (= cell_5_3 5)))
 (let (($x3028 (= cell_5_3 4)))
 (let (($x3749 (= cell_5_3 3)))
 (let (($x3418 (= cell_5_3 2)))
 (let (($x1241 (= cell_5_3 1)))
 (or $x1241 $x3418 $x3749 $x3028 $x2278 $x3477 $x4067 $x2940 $x1974)))))))))))
(assert
 (let (($x4308 (= cell_6_3 2)))
 (let (($x1826 (= cell_6_3 1)))
 (or $x1826 $x4308 (= cell_6_3 3) (= cell_6_3 4) (= cell_6_3 5) (= cell_6_3 6) (= cell_6_3 7) (= cell_6_3 8) (= cell_6_3 9)))))
(assert
 (let (($x4882 (= cell_7_3 9)))
 (let (($x277 (= cell_7_3 8)))
 (let (($x2843 (= cell_7_3 7)))
 (let (($x8757 (= cell_7_3 6)))
 (let (($x1056 (= cell_7_3 5)))
 (let (($x1239 (= cell_7_3 4)))
 (let (($x4720 (= cell_7_3 3)))
 (let (($x6795 (= cell_7_3 2)))
 (let (($x317 (= cell_7_3 1)))
 (or $x317 $x6795 $x4720 $x1239 $x1056 $x8757 $x2843 $x277 $x4882)))))))))))
(assert
 (let (($x6150 (= cell_8_3 1)))
 (or $x6150 (= cell_8_3 2) (= cell_8_3 3) (= cell_8_3 4) (= cell_8_3 5) (= cell_8_3 6) (= cell_8_3 7) (= cell_8_3 8) (= cell_8_3 9))))
(assert
 (let (($x5493 (= cell_9_3 9)))
 (let (($x3520 (= cell_9_3 8)))
 (let (($x4692 (= cell_9_3 7)))
 (let (($x6293 (= cell_9_3 6)))
 (let (($x5758 (= cell_9_3 5)))
 (let (($x2197 (= cell_9_3 4)))
 (let (($x2429 (= cell_9_3 3)))
 (let (($x4000 (= cell_9_3 2)))
 (let (($x4074 (= cell_9_3 1)))
 (or $x4074 $x4000 $x2429 $x2197 $x5758 $x6293 $x4692 $x3520 $x5493)))))))))))
(assert
 (let (($x3870 (= cell_1_4 9)))
 (let (($x6344 (= cell_1_4 8)))
 (let (($x2010 (= cell_1_4 7)))
 (let (($x4079 (= cell_1_4 6)))
 (let (($x977 (= cell_1_4 5)))
 (let (($x5179 (= cell_1_4 4)))
 (let (($x4706 (= cell_1_4 3)))
 (let (($x2453 (= cell_1_4 2)))
 (let (($x381 (= cell_1_4 1)))
 (or $x381 $x2453 $x4706 $x5179 $x977 $x4079 $x2010 $x6344 $x3870)))))))))))
(assert
 (let (($x4395 (= cell_2_4 9)))
 (let (($x2785 (= cell_2_4 8)))
 (let (($x5861 (= cell_2_4 7)))
 (let (($x5261 (= cell_2_4 6)))
 (let (($x6587 (= cell_2_4 5)))
 (let (($x769 (= cell_2_4 4)))
 (let (($x7086 (= cell_2_4 3)))
 (let (($x5403 (= cell_2_4 2)))
 (let (($x4549 (= cell_2_4 1)))
 (or $x4549 $x5403 $x7086 $x769 $x6587 $x5261 $x5861 $x2785 $x4395)))))))))))
(assert
 (let (($x3818 (= cell_3_4 9)))
 (let (($x6549 (= cell_3_4 8)))
 (let (($x4151 (= cell_3_4 7)))
 (let (($x1757 (= cell_3_4 6)))
 (let (($x3926 (= cell_3_4 5)))
 (let (($x1783 (= cell_3_4 4)))
 (let (($x4044 (= cell_3_4 3)))
 (let (($x1942 (= cell_3_4 2)))
 (let (($x52 (= cell_3_4 1)))
 (or $x52 $x1942 $x4044 $x1783 $x3926 $x1757 $x4151 $x6549 $x3818)))))))))))
(assert
 (let (($x1114 (= cell_4_4 1)))
 (or $x1114 (= cell_4_4 2) (= cell_4_4 3) (= cell_4_4 4) (= cell_4_4 5) (= cell_4_4 6) (= cell_4_4 7) (= cell_4_4 8) (= cell_4_4 9))))
(assert
 (let (($x8324 (= cell_5_4 9)))
 (let (($x378 (= cell_5_4 8)))
 (let (($x3779 (= cell_5_4 7)))
 (let (($x1224 (= cell_5_4 6)))
 (let (($x2543 (= cell_5_4 5)))
 (let (($x2033 (= cell_5_4 4)))
 (let (($x605 (= cell_5_4 3)))
 (let (($x1322 (= cell_5_4 2)))
 (let (($x5583 (= cell_5_4 1)))
 (or $x5583 $x1322 $x605 $x2033 $x2543 $x1224 $x3779 $x378 $x8324)))))))))))
(assert
 (let (($x4905 (= cell_6_4 1)))
 (or $x4905 (= cell_6_4 2) (= cell_6_4 3) (= cell_6_4 4) (= cell_6_4 5) (= cell_6_4 6) (= cell_6_4 7) (= cell_6_4 8) (= cell_6_4 9))))
(assert
 (let (($x4775 (= cell_7_4 9)))
 (let (($x794 (= cell_7_4 8)))
 (let (($x3319 (= cell_7_4 7)))
 (let (($x6372 (= cell_7_4 6)))
 (let (($x1964 (= cell_7_4 5)))
 (let (($x2733 (= cell_7_4 4)))
 (let (($x5095 (= cell_7_4 3)))
 (let (($x6071 (= cell_7_4 2)))
 (let (($x24 (= cell_7_4 1)))
 (or $x24 $x6071 $x5095 $x2733 $x1964 $x6372 $x3319 $x794 $x4775)))))))))))
(assert
 (let (($x408 (= cell_8_4 9)))
 (let (($x6129 (= cell_8_4 8)))
 (let (($x1012 (= cell_8_4 7)))
 (let (($x1769 (= cell_8_4 6)))
 (let (($x4879 (= cell_8_4 5)))
 (let (($x4342 (= cell_8_4 4)))
 (let (($x814 (= cell_8_4 3)))
 (let (($x5174 (= cell_8_4 2)))
 (let (($x4126 (= cell_8_4 1)))
 (or $x4126 $x5174 $x814 $x4342 $x4879 $x1769 $x1012 $x6129 $x408)))))))))))
(assert
 (let (($x1818 (= cell_9_4 9)))
 (let (($x1119 (= cell_9_4 8)))
 (let (($x5175 (= cell_9_4 7)))
 (let (($x4371 (= cell_9_4 6)))
 (let (($x5564 (= cell_9_4 5)))
 (let (($x243 (= cell_9_4 4)))
 (let (($x2890 (= cell_9_4 3)))
 (let (($x5187 (= cell_9_4 2)))
 (let (($x2838 (= cell_9_4 1)))
 (or $x2838 $x5187 $x2890 $x243 $x5564 $x4371 $x5175 $x1119 $x1818)))))))))))
(assert
 (let (($x3684 (= cell_1_5 9)))
 (let (($x4382 (= cell_1_5 8)))
 (let (($x3650 (= cell_1_5 7)))
 (let (($x4026 (= cell_1_5 6)))
 (let (($x15 (= cell_1_5 5)))
 (let (($x1458 (= cell_1_5 4)))
 (let (($x4482 (= cell_1_5 3)))
 (let (($x5680 (= cell_1_5 2)))
 (let (($x3169 (= cell_1_5 1)))
 (or $x3169 $x5680 $x4482 $x1458 $x15 $x4026 $x3650 $x4382 $x3684)))))))))))
(assert
 (let (($x67 (= cell_2_5 2)))
 (or (= cell_2_5 1) $x67 (= cell_2_5 3) (= cell_2_5 4) (= cell_2_5 5) (= cell_2_5 6) (= cell_2_5 7) (= cell_2_5 8) (= cell_2_5 9))))
(assert
 (let (($x2126 (= cell_3_5 9)))
 (let (($x4602 (= cell_3_5 8)))
 (let (($x1580 (= cell_3_5 7)))
 (let (($x5353 (= cell_3_5 6)))
 (let (($x3832 (= cell_3_5 5)))
 (let (($x4831 (= cell_3_5 4)))
 (let (($x1440 (= cell_3_5 3)))
 (let (($x4911 (= cell_3_5 2)))
 (let (($x3442 (= cell_3_5 1)))
 (or $x3442 $x4911 $x1440 $x4831 $x3832 $x5353 $x1580 $x4602 $x2126)))))))))))
(assert
 (let (($x6547 (= cell_4_5 9)))
 (let (($x1563 (= cell_4_5 8)))
 (let (($x3016 (= cell_4_5 7)))
 (let (($x800 (= cell_4_5 6)))
 (let (($x1596 (= cell_4_5 5)))
 (let (($x1016 (= cell_4_5 4)))
 (let (($x1045 (= cell_4_5 3)))
 (let (($x4037 (= cell_4_5 2)))
 (let (($x5601 (= cell_4_5 1)))
 (or $x5601 $x4037 $x1045 $x1016 $x1596 $x800 $x3016 $x1563 $x6547)))))))))))
(assert
 (let (($x228 (= cell_5_5 9)))
 (let (($x4941 (= cell_5_5 8)))
 (let (($x3747 (= cell_5_5 7)))
 (let (($x5372 (= cell_5_5 6)))
 (let (($x5705 (= cell_5_5 5)))
 (let (($x5399 (= cell_5_5 4)))
 (let (($x4653 (= cell_5_5 3)))
 (let (($x5188 (= cell_5_5 2)))
 (let (($x3050 (= cell_5_5 1)))
 (or $x3050 $x5188 $x4653 $x5399 $x5705 $x5372 $x3747 $x4941 $x228)))))))))))
(assert
 (let (($x2251 (= cell_6_5 9)))
 (let (($x7339 (= cell_6_5 8)))
 (let (($x372 (= cell_6_5 7)))
 (let (($x633 (= cell_6_5 6)))
 (let (($x9 (= cell_6_5 5)))
 (let (($x5581 (= cell_6_5 4)))
 (let (($x2551 (= cell_6_5 3)))
 (let (($x1719 (= cell_6_5 2)))
 (let (($x2491 (= cell_6_5 1)))
 (or $x2491 $x1719 $x2551 $x5581 $x9 $x633 $x372 $x7339 $x2251)))))))))))
(assert
 (let (($x3501 (= cell_7_5 9)))
 (let (($x3806 (= cell_7_5 8)))
 (let (($x78 (= cell_7_5 7)))
 (let (($x3456 (= cell_7_5 6)))
 (let (($x5213 (= cell_7_5 5)))
 (let (($x3104 (= cell_7_5 4)))
 (let (($x1000 (= cell_7_5 3)))
 (let (($x479 (= cell_7_5 2)))
 (let (($x6444 (= cell_7_5 1)))
 (or $x6444 $x479 $x1000 $x3104 $x5213 $x3456 $x78 $x3806 $x3501)))))))))))
(assert
 (let (($x3928 (= cell_8_5 9)))
 (let (($x3669 (= cell_8_5 8)))
 (let (($x3374 (= cell_8_5 7)))
 (let (($x2262 (= cell_8_5 6)))
 (let (($x5448 (= cell_8_5 5)))
 (let (($x5414 (= cell_8_5 4)))
 (let (($x3601 (= cell_8_5 3)))
 (let (($x4749 (= cell_8_5 2)))
 (let (($x2280 (= cell_8_5 1)))
 (or $x2280 $x4749 $x3601 $x5414 $x5448 $x2262 $x3374 $x3669 $x3928)))))))))))
(assert
 (let (($x1737 (= cell_9_5 1)))
 (or $x1737 (= cell_9_5 2) (= cell_9_5 3) (= cell_9_5 4) (= cell_9_5 5) (= cell_9_5 6) (= cell_9_5 7) (= cell_9_5 8) (= cell_9_5 9))))
(assert
 (let (($x6364 (= cell_1_6 1)))
 (or $x6364 (= cell_1_6 2) (= cell_1_6 3) (= cell_1_6 4) (= cell_1_6 5) (= cell_1_6 6) (= cell_1_6 7) (= cell_1_6 8) (= cell_1_6 9))))
(assert
 (let (($x382 (= cell_2_6 9)))
 (let (($x3014 (= cell_2_6 8)))
 (let (($x5712 (= cell_2_6 7)))
 (let (($x5570 (= cell_2_6 6)))
 (let (($x5498 (= cell_2_6 5)))
 (let (($x1233 (= cell_2_6 4)))
 (let (($x2058 (= cell_2_6 3)))
 (let (($x2874 (= cell_2_6 2)))
 (let (($x3571 (= cell_2_6 1)))
 (or $x3571 $x2874 $x2058 $x1233 $x5498 $x5570 $x5712 $x3014 $x382)))))))))))
(assert
 (let (($x5380 (= cell_3_6 2)))
 (let (($x3057 (= cell_3_6 1)))
 (or $x3057 $x5380 (= cell_3_6 3) (= cell_3_6 4) (= cell_3_6 5) (= cell_3_6 6) (= cell_3_6 7) (= cell_3_6 8) (= cell_3_6 9)))))
(assert
 (let (($x5348 (= cell_4_6 1)))
 (or $x5348 (= cell_4_6 2) (= cell_4_6 3) (= cell_4_6 4) (= cell_4_6 5) (= cell_4_6 6) (= cell_4_6 7) (= cell_4_6 8) (= cell_4_6 9))))
(assert
 (let (($x2428 (= cell_5_6 9)))
 (let (($x1930 (= cell_5_6 8)))
 (let (($x5866 (= cell_5_6 7)))
 (let (($x4132 (= cell_5_6 6)))
 (let (($x3036 (= cell_5_6 5)))
 (let (($x1869 (= cell_5_6 4)))
 (let (($x4425 (= cell_5_6 3)))
 (let (($x2121 (= cell_5_6 2)))
 (let (($x5838 (= cell_5_6 1)))
 (or $x5838 $x2121 $x4425 $x1869 $x3036 $x4132 $x5866 $x1930 $x2428)))))))))))
(assert
 (let (($x5313 (= cell_6_6 1)))
 (or $x5313 (= cell_6_6 2) (= cell_6_6 3) (= cell_6_6 4) (= cell_6_6 5) (= cell_6_6 6) (= cell_6_6 7) (= cell_6_6 8) (= cell_6_6 9))))
(assert
 (let (($x3742 (= cell_7_6 9)))
 (let (($x1097 (= cell_7_6 8)))
 (let (($x3844 (= cell_7_6 7)))
 (let (($x1243 (= cell_7_6 6)))
 (let (($x2145 (= cell_7_6 5)))
 (let (($x1315 (= cell_7_6 4)))
 (let (($x5522 (= cell_7_6 3)))
 (let (($x219 (= cell_7_6 2)))
 (let (($x4258 (= cell_7_6 1)))
 (or $x4258 $x219 $x5522 $x1315 $x2145 $x1243 $x3844 $x1097 $x3742)))))))))))
(assert
 (let (($x1043 (= cell_8_6 9)))
 (let (($x5102 (= cell_8_6 8)))
 (let (($x6351 (= cell_8_6 7)))
 (let (($x6048 (= cell_8_6 6)))
 (let (($x2180 (= cell_8_6 5)))
 (let (($x2853 (= cell_8_6 4)))
 (let (($x5447 (= cell_8_6 3)))
 (let (($x3819 (= cell_8_6 2)))
 (let (($x4561 (= cell_8_6 1)))
 (or $x4561 $x3819 $x5447 $x2853 $x2180 $x6048 $x6351 $x5102 $x1043)))))))))))
(assert
 (let (($x1375 (= cell_9_6 1)))
 (or $x1375 (= cell_9_6 2) (= cell_9_6 3) (= cell_9_6 4) (= cell_9_6 5) (= cell_9_6 6) (= cell_9_6 7) (= cell_9_6 8) (= cell_9_6 9))))
(assert
 (let (($x2086 (= cell_1_7 9)))
 (let (($x5303 (= cell_1_7 8)))
 (let (($x5327 (= cell_1_7 7)))
 (let (($x1021 (= cell_1_7 6)))
 (let (($x879 (= cell_1_7 5)))
 (let (($x5046 (= cell_1_7 4)))
 (let (($x3954 (= cell_1_7 3)))
 (let (($x4214 (= cell_1_7 2)))
 (let (($x1615 (= cell_1_7 1)))
 (or $x1615 $x4214 $x3954 $x5046 $x879 $x1021 $x5327 $x5303 $x2086)))))))))))
(assert
 (let (($x41 (= cell_2_7 1)))
 (or $x41 (= cell_2_7 2) (= cell_2_7 3) (= cell_2_7 4) (= cell_2_7 5) (= cell_2_7 6) (= cell_2_7 7) (= cell_2_7 8) (= cell_2_7 9))))
(assert
 (let (($x1424 (= cell_3_7 2)))
 (let (($x511 (= cell_3_7 1)))
 (or $x511 $x1424 (= cell_3_7 3) (= cell_3_7 4) (= cell_3_7 5) (= cell_3_7 6) (= cell_3_7 7) (= cell_3_7 8) (= cell_3_7 9)))))
(assert
 (let (($x3715 (= cell_4_7 9)))
 (let (($x6196 (= cell_4_7 8)))
 (let (($x6035 (= cell_4_7 7)))
 (let (($x3580 (= cell_4_7 6)))
 (let (($x4533 (= cell_4_7 5)))
 (let (($x2929 (= cell_4_7 4)))
 (let (($x1257 (= cell_4_7 3)))
 (let (($x4526 (= cell_4_7 2)))
 (let (($x5374 (= cell_4_7 1)))
 (or $x5374 $x4526 $x1257 $x2929 $x4533 $x3580 $x6035 $x6196 $x3715)))))))))))
(assert
 (let (($x480 (= cell_5_7 9)))
 (let (($x1090 (= cell_5_7 8)))
 (let (($x5604 (= cell_5_7 7)))
 (let (($x4501 (= cell_5_7 6)))
 (let (($x1771 (= cell_5_7 5)))
 (let (($x4010 (= cell_5_7 4)))
 (let (($x554 (= cell_5_7 3)))
 (let (($x1446 (= cell_5_7 2)))
 (let (($x5319 (= cell_5_7 1)))
 (or $x5319 $x1446 $x554 $x4010 $x1771 $x4501 $x5604 $x1090 $x480)))))))))))
(assert
 (let (($x3355 (= cell_6_7 1)))
 (or $x3355 (= cell_6_7 2) (= cell_6_7 3) (= cell_6_7 4) (= cell_6_7 5) (= cell_6_7 6) (= cell_6_7 7) (= cell_6_7 8) (= cell_6_7 9))))
(assert
 (let (($x2496 (= cell_7_7 9)))
 (let (($x907 (= cell_7_7 8)))
 (let (($x2443 (= cell_7_7 7)))
 (let (($x2646 (= cell_7_7 6)))
 (let (($x5540 (= cell_7_7 5)))
 (let (($x2723 (= cell_7_7 4)))
 (let (($x833 (= cell_7_7 3)))
 (let (($x5044 (= cell_7_7 2)))
 (let (($x3608 (= cell_7_7 1)))
 (or $x3608 $x5044 $x833 $x2723 $x5540 $x2646 $x2443 $x907 $x2496)))))))))))
(assert
 (let (($x3479 (= cell_8_7 2)))
 (let (($x4018 (= cell_8_7 1)))
 (or $x4018 $x3479 (= cell_8_7 3) (= cell_8_7 4) (= cell_8_7 5) (= cell_8_7 6) (= cell_8_7 7) (= cell_8_7 8) (= cell_8_7 9)))))
(assert
 (let (($x2672 (= cell_9_7 1)))
 (or $x2672 (= cell_9_7 2) (= cell_9_7 3) (= cell_9_7 4) (= cell_9_7 5) (= cell_9_7 6) (= cell_9_7 7) (= cell_9_7 8) (= cell_9_7 9))))
(assert
 (let (($x1681 (= cell_1_8 2)))
 (or (= cell_1_8 1) $x1681 (= cell_1_8 3) (= cell_1_8 4) (= cell_1_8 5) (= cell_1_8 6) (= cell_1_8 7) (= cell_1_8 8) (= cell_1_8 9))))
(assert
 (let (($x5808 (= cell_2_8 9)))
 (let (($x4401 (= cell_2_8 8)))
 (let (($x2534 (= cell_2_8 7)))
 (let (($x3837 (= cell_2_8 6)))
 (let (($x4058 (= cell_2_8 5)))
 (let (($x4742 (= cell_2_8 4)))
 (let (($x4551 (= cell_2_8 3)))
 (let (($x3809 (= cell_2_8 2)))
 (let (($x4147 (= cell_2_8 1)))
 (or $x4147 $x3809 $x4551 $x4742 $x4058 $x3837 $x2534 $x4401 $x5808)))))))))))
(assert
 (let (($x3254 (= cell_3_8 9)))
 (let (($x4407 (= cell_3_8 8)))
 (let (($x4449 (= cell_3_8 7)))
 (let (($x4419 (= cell_3_8 6)))
 (let (($x5728 (= cell_3_8 5)))
 (let (($x4898 (= cell_3_8 4)))
 (let (($x4013 (= cell_3_8 3)))
 (let (($x402 (= cell_3_8 2)))
 (let (($x2949 (= cell_3_8 1)))
 (or $x2949 $x402 $x4013 $x4898 $x5728 $x4419 $x4449 $x4407 $x3254)))))))))))
(assert
 (let (($x2207 (= cell_4_8 9)))
 (let (($x1929 (= cell_4_8 8)))
 (let (($x726 (= cell_4_8 7)))
 (let (($x3843 (= cell_4_8 6)))
 (let (($x1032 (= cell_4_8 5)))
 (let (($x4490 (= cell_4_8 4)))
 (let (($x4125 (= cell_4_8 3)))
 (let (($x3249 (= cell_4_8 2)))
 (let (($x3673 (= cell_4_8 1)))
 (or $x3673 $x3249 $x4125 $x4490 $x1032 $x3843 $x726 $x1929 $x2207)))))))))))
(assert
 (let (($x4572 (= cell_5_8 1)))
 (or $x4572 (= cell_5_8 2) (= cell_5_8 3) (= cell_5_8 4) (= cell_5_8 5) (= cell_5_8 6) (= cell_5_8 7) (= cell_5_8 8) (= cell_5_8 9))))
(assert
 (let (($x284 (= cell_6_8 2)))
 (let (($x4276 (= cell_6_8 1)))
 (or $x4276 $x284 (= cell_6_8 3) (= cell_6_8 4) (= cell_6_8 5) (= cell_6_8 6) (= cell_6_8 7) (= cell_6_8 8) (= cell_6_8 9)))))
(assert
 (let (($x3899 (= cell_7_8 9)))
 (let (($x3838 (= cell_7_8 8)))
 (let (($x2268 (= cell_7_8 7)))
 (let (($x1906 (= cell_7_8 6)))
 (let (($x591 (= cell_7_8 5)))
 (let (($x6028 (= cell_7_8 4)))
 (let (($x2211 (= cell_7_8 3)))
 (let (($x3404 (= cell_7_8 2)))
 (let (($x5914 (= cell_7_8 1)))
 (or $x5914 $x3404 $x2211 $x6028 $x591 $x1906 $x2268 $x3838 $x3899)))))))))))
(assert
 (let (($x3569 (= cell_8_8 2)))
 (let (($x3488 (= cell_8_8 1)))
 (or $x3488 $x3569 (= cell_8_8 3) (= cell_8_8 4) (= cell_8_8 5) (= cell_8_8 6) (= cell_8_8 7) (= cell_8_8 8) (= cell_8_8 9)))))
(assert
 (let (($x5302 (= cell_9_8 2)))
 (let (($x593 (= cell_9_8 1)))
 (or $x593 $x5302 (= cell_9_8 3) (= cell_9_8 4) (= cell_9_8 5) (= cell_9_8 6) (= cell_9_8 7) (= cell_9_8 8) (= cell_9_8 9)))))
(assert
 (let (($x5867 (= cell_1_9 9)))
 (let (($x1600 (= cell_1_9 8)))
 (let (($x3698 (= cell_1_9 7)))
 (let (($x1270 (= cell_1_9 6)))
 (let (($x2288 (= cell_1_9 5)))
 (let (($x6161 (= cell_1_9 4)))
 (let (($x434 (= cell_1_9 3)))
 (let (($x5071 (= cell_1_9 2)))
 (let (($x547 (= cell_1_9 1)))
 (or $x547 $x5071 $x434 $x6161 $x2288 $x1270 $x3698 $x1600 $x5867)))))))))))
(assert
 (let (($x5247 (= cell_2_9 9)))
 (let (($x5991 (= cell_2_9 8)))
 (let (($x2668 (= cell_2_9 7)))
 (let (($x3510 (= cell_2_9 6)))
 (let (($x4390 (= cell_2_9 5)))
 (let (($x133 (= cell_2_9 4)))
 (let (($x4687 (= cell_2_9 3)))
 (let (($x638 (= cell_2_9 2)))
 (let (($x3082 (= cell_2_9 1)))
 (or $x3082 $x638 $x4687 $x133 $x4390 $x3510 $x2668 $x5991 $x5247)))))))))))
(assert
 (let (($x5527 (= cell_3_9 9)))
 (let (($x3003 (= cell_3_9 8)))
 (let (($x2413 (= cell_3_9 7)))
 (let (($x1701 (= cell_3_9 6)))
 (let (($x524 (= cell_3_9 5)))
 (let (($x5305 (= cell_3_9 4)))
 (let (($x2489 (= cell_3_9 3)))
 (let (($x1720 (= cell_3_9 2)))
 (let (($x2997 (= cell_3_9 1)))
 (or $x2997 $x1720 $x2489 $x5305 $x524 $x1701 $x2413 $x3003 $x5527)))))))))))
(assert
 (let (($x4399 (= cell_4_9 9)))
 (let (($x12 (= cell_4_9 8)))
 (let (($x4137 (= cell_4_9 7)))
 (let (($x6404 (= cell_4_9 6)))
 (let (($x1190 (= cell_4_9 5)))
 (let (($x1170 (= cell_4_9 4)))
 (let (($x5989 (= cell_4_9 3)))
 (let (($x3691 (= cell_4_9 2)))
 (let (($x3736 (= cell_4_9 1)))
 (or $x3736 $x3691 $x5989 $x1170 $x1190 $x6404 $x4137 $x12 $x4399)))))))))))
(assert
 (let (($x4402 (= cell_5_9 9)))
 (let (($x1428 (= cell_5_9 8)))
 (let (($x1222 (= cell_5_9 7)))
 (let (($x708 (= cell_5_9 6)))
 (let (($x4102 (= cell_5_9 5)))
 (let (($x1305 (= cell_5_9 4)))
 (let (($x1075 (= cell_5_9 3)))
 (let (($x6328 (= cell_5_9 2)))
 (let (($x3969 (= cell_5_9 1)))
 (or $x3969 $x6328 $x1075 $x1305 $x4102 $x708 $x1222 $x1428 $x4402)))))))))))
(assert
 (let (($x37 (= cell_6_9 9)))
 (let (($x6312 (= cell_6_9 8)))
 (let (($x4239 (= cell_6_9 7)))
 (let (($x4736 (= cell_6_9 6)))
 (let (($x8389 (= cell_6_9 5)))
 (let (($x2047 (= cell_6_9 4)))
 (let (($x5092 (= cell_6_9 3)))
 (let (($x5467 (= cell_6_9 2)))
 (let (($x2909 (= cell_6_9 1)))
 (or $x2909 $x5467 $x5092 $x2047 $x8389 $x4736 $x4239 $x6312 $x37)))))))))))
(assert
 (let (($x4504 (= cell_7_9 1)))
 (or $x4504 (= cell_7_9 2) (= cell_7_9 3) (= cell_7_9 4) (= cell_7_9 5) (= cell_7_9 6) (= cell_7_9 7) (= cell_7_9 8) (= cell_7_9 9))))
(assert
 (let (($x2511 (= cell_8_9 1)))
 (or $x2511 (= cell_8_9 2) (= cell_8_9 3) (= cell_8_9 4) (= cell_8_9 5) (= cell_8_9 6) (= cell_8_9 7) (= cell_8_9 8) (= cell_8_9 9))))
(assert
 (let (($x1936 (= cell_9_9 1)))
 (or $x1936 (= cell_9_9 2) (= cell_9_9 3) (= cell_9_9 4) (= cell_9_9 5) (= cell_9_9 6) (= cell_9_9 7) (= cell_9_9 8) (= cell_9_9 9))))
(assert
 (and (distinct cell_1_1 cell_1_2 cell_1_3 cell_1_4 cell_1_5 cell_1_6 cell_1_7 cell_1_8 cell_1_9) true))
(assert
 (and (distinct cell_2_1 cell_2_2 cell_2_3 cell_2_4 cell_2_5 cell_2_6 cell_2_7 cell_2_8 cell_2_9) true))
(assert
 (and (distinct cell_3_1 cell_3_2 cell_3_3 cell_3_4 cell_3_5 cell_3_6 cell_3_7 cell_3_8 cell_3_9) true))
(assert
 (and (distinct cell_4_1 cell_4_2 cell_4_3 cell_4_4 cell_4_5 cell_4_6 cell_4_7 cell_4_8 cell_4_9) true))
(assert
 (and (distinct cell_5_1 cell_5_2 cell_5_3 cell_5_4 cell_5_5 cell_5_6 cell_5_7 cell_5_8 cell_5_9) true))
(assert
 (and (distinct cell_6_1 cell_6_2 cell_6_3 cell_6_4 cell_6_5 cell_6_6 cell_6_7 cell_6_8 cell_6_9) true))
(assert
 (and (distinct cell_7_1 cell_7_2 cell_7_3 cell_7_4 cell_7_5 cell_7_6 cell_7_7 cell_7_8 cell_7_9) true))
(assert
 (and (distinct cell_8_1 cell_8_2 cell_8_3 cell_8_4 cell_8_5 cell_8_6 cell_8_7 cell_8_8 cell_8_9) true))
(assert
 (and (distinct cell_9_1 cell_9_2 cell_9_3 cell_9_4 cell_9_5 cell_9_6 cell_9_7 cell_9_8 cell_9_9) true))
(assert
 (and (distinct cell_1_1 cell_2_1 cell_3_1 cell_4_1 cell_5_1 cell_6_1 cell_7_1 cell_8_1 cell_9_1) true))
(assert
 (and (distinct cell_1_2 cell_2_2 cell_3_2 cell_4_2 cell_5_2 cell_6_2 cell_7_2 cell_8_2 cell_9_2) true))
(assert
 (and (distinct cell_1_3 cell_2_3 cell_3_3 cell_4_3 cell_5_3 cell_6_3 cell_7_3 cell_8_3 cell_9_3) true))
(assert
 (and (distinct cell_1_4 cell_2_4 cell_3_4 cell_4_4 cell_5_4 cell_6_4 cell_7_4 cell_8_4 cell_9_4) true))
(assert
 (and (distinct cell_1_5 cell_2_5 cell_3_5 cell_4_5 cell_5_5 cell_6_5 cell_7_5 cell_8_5 cell_9_5) true))
(assert
 (and (distinct cell_1_6 cell_2_6 cell_3_6 cell_4_6 cell_5_6 cell_6_6 cell_7_6 cell_8_6 cell_9_6) true))
(assert
 (and (distinct cell_1_7 cell_2_7 cell_3_7 cell_4_7 cell_5_7 cell_6_7 cell_7_7 cell_8_7 cell_9_7) true))
(assert
 (and (distinct cell_1_8 cell_2_8 cell_3_8 cell_4_8 cell_5_8 cell_6_8 cell_7_8 cell_8_8 cell_9_8) true))
(assert
 (and (distinct cell_1_9 cell_2_9 cell_3_9 cell_4_9 cell_5_9 cell_6_9 cell_7_9 cell_8_9 cell_9_9) true))
(assert
 (and (distinct cell_1_1 cell_1_2 cell_1_3 cell_2_1 cell_2_2 cell_2_3 cell_3_1 cell_3_2 cell_3_3) true))
(assert
 (and (distinct cell_1_4 cell_1_5 cell_1_6 cell_2_4 cell_2_5 cell_2_6 cell_3_4 cell_3_5 cell_3_6) true))
(assert
 (and (distinct cell_1_7 cell_1_8 cell_1_9 cell_2_7 cell_2_8 cell_2_9 cell_3_7 cell_3_8 cell_3_9) true))
(assert
 (and (distinct cell_4_1 cell_4_2 cell_4_3 cell_5_1 cell_5_2 cell_5_3 cell_6_1 cell_6_2 cell_6_3) true))
(assert
 (and (distinct cell_4_4 cell_4_5 cell_4_6 cell_5_4 cell_5_5 cell_5_6 cell_6_4 cell_6_5 cell_6_6) true))
(assert
 (and (distinct cell_4_7 cell_4_8 cell_4_9 cell_5_7 cell_5_8 cell_5_9 cell_6_7 cell_6_8 cell_6_9) true))
(assert
 (and (distinct cell_7_1 cell_7_2 cell_7_3 cell_8_1 cell_8_2 cell_8_3 cell_9_1 cell_9_2 cell_9_3) true))
(assert
 (and (distinct cell_7_4 cell_7_5 cell_7_6 cell_8_4 cell_8_5 cell_8_6 cell_9_4 cell_9_5 cell_9_6) true))
(assert
 (and (distinct cell_7_7 cell_7_8 cell_7_9 cell_8_7 cell_8_8 cell_8_9 cell_9_7 cell_9_8 cell_9_9) true))
(assert
 (let (($x844 (and (distinct cell_5_9 cell_6_8 cell_7_7 cell_8_6) true)))
 (let (($x3758 (and (distinct cell_2_9 cell_3_8 cell_4_7 cell_5_6 cell_6_5 cell_7_4 cell_8_3 cell_9_2) true)))
 (let (($x3740 (and (distinct cell_1_8 cell_2_7 cell_3_6 cell_4_5 cell_5_4 cell_6_3 cell_7_2 cell_8_1) true)))
 (let (($x3042 (and (distinct cell_1_5 cell_2_4 cell_3_3 cell_4_2) true)))
 (let (($x4773 (and (distinct cell_5_1 cell_6_2 cell_7_3 cell_8_4) true)))
 (let (($x2388 (and (distinct cell_2_1 cell_3_2 cell_4_3 cell_5_4 cell_6_5 cell_7_6 cell_8_7 cell_9_8) true)))
 (let (($x2632 (and (distinct cell_1_2 cell_2_3 cell_3_4 cell_4_5 cell_5_6 cell_6_7 cell_7_8 cell_8_9) true)))
 (let (($x5762 (and (distinct cell_1_5 cell_2_6 cell_3_7 cell_4_8) true)))
 (and $x5762 $x2632 $x2388 $x4773 $x3042 $x3740 $x3758 $x844))))))))))
(assert
 (and (distinct cell_4_7 2) true))
(check-sat)
